peakDumbCharging = 7400; 
Machine = anon_enum(16); 
machineSpeed = [3700,3700,3700,3700,3700,3700,3700,3700,3700,3700,3700,3700,3700,3700,3700,3700]; 
machineLoad = [3700,3700,3700,3700,3700,3700,3700,3700,3700,3700,3700,3700,3700,3700,3700,3700]; 
Car = anon_enum(7); 
demandCar = [34920,11640,9440,8000,5440,1560,9120]; 
arrivalCar = [69,66,60,55,49,48,44]; 
departureCar = [84,72,67,69,52,50,48]; 
